Minimize
  - 14 y_0 - 11 y_1 - 22 y_3 - 14 y_4 - 35 y_5 - 8 y_6 - 29 y_7 - 24 y_8
   - 22 y_9 + 52 x_0_3 + 96 x_0_5 + 76 x_0_7 + 63 x_0_9 + 23 x_1_2
   + 9 x_1_4 + 23 x_1_6 + 73 x_1_7 + 63 x_1_9 + 69 x_2_5 + 15 x_2_6
   + 47 x_2_8 + 45 x_2_9 + 72 x_3_4 + 21 x_3_9 + 65 x_4_5 + 82 x_4_7
   + 23 x_4_8 + 71 x_4_9 + 52 x_5_8 + 46 x_6_8 + 13 x_7_9 + 25 x_8_1
   + 179 Constant
Subject To
 c_0: y_3 = 1
 c_1_0: y_0 >= 1
 c_1_1: y_1 + y_4 >= 1
 c_1_2: y_2 >= 1
 c_1_3: y_3 >= 1
 c_1_4: y_1 + y_4 >= 1
 c_1_5: y_5 >= 1
 c_1_6: y_6 >= 1
 c_1_7: y_7 >= 1
 c_1_8: y_8 >= 1
 c_1_9: y_9 >= 1
 c_2_0: - 2 y_0 + x_0_3 + x_0_5 + x_0_7 + x_0_9 = 0
 c_2_1: - 2 y_1 + x_1_2 + x_1_4 + x_1_6 + x_1_7 + x_1_9 + x_8_1 = 0
 c_2_2: - 2 y_2 + x_1_2 + x_2_5 + x_2_6 + x_2_8 + x_2_9 = 0
 c_2_3: - 2 y_3 + x_0_3 + x_3_4 + x_3_9 = 0
 c_2_4: - 2 y_4 + x_1_4 + x_3_4 + x_4_5 + x_4_7 + x_4_8 + x_4_9 = 0
 c_2_5: - 2 y_5 + x_0_5 + x_2_5 + x_4_5 + x_5_8 = 0
 c_2_6: - 2 y_6 + x_1_6 + x_2_6 + x_6_8 = 0
 c_2_7: - 2 y_7 + x_0_7 + x_1_7 + x_4_7 + x_7_9 = 0
 c_2_8: - 2 y_8 + x_2_8 + x_4_8 + x_5_8 + x_6_8 + x_8_1 = 0
 c_2_9: - 2 y_9 + x_0_9 + x_1_9 + x_2_9 + x_3_9 + x_4_9 + x_7_9 = 0
Bounds
 Constant = 1
Binaries
 y_0 y_1 y_2 y_3 y_4 y_5 y_6 y_7 y_8 y_9 x_0_3 x_0_5 x_0_7 x_0_9 x_1_2
 x_1_4 x_1_6 x_1_7 x_1_9 x_2_5 x_2_6 x_2_8 x_2_9 x_3_4 x_3_9 x_4_5 x_4_7
 x_4_8 x_4_9 x_5_8 x_6_8 x_7_9 x_8_1
End
